
Gurobi 11.0.3 (linux64) logging started Sat Nov 23 15:19:18 2024

Set parameter LogFile to value "/home/yihong/Coding/OR_SUC/SUC_results_bigM100000_thread4/case24_ieee_rts_theta0.5_epsilon0.025_gurobi_seed80000_num_gen100_N_WDR50_load_scaling_factor1_proposed_T24quadra_cost.txt"
Set parameter TimeLimit to value 3600
Gurobi Optimizer version 11.0.3 build v11.0.3rc0 (linux64 - "Ubuntu 20.04.6 LTS")

CPU model: AMD EPYC 7532 32-Core Processor, instruction set [SSE2|AVX|AVX2]
Thread count: 64 physical cores, 128 logical processors, using up to 4 threads

Optimize a model with 50020 rows, 29811 columns and 506326 nonzeros
Model fingerprint: 0x9534350b
Model has 2400 quadratic constraints
Variable types: 27411 continuous, 2400 integer (2400 binary)
Coefficient statistics:
  Matrix range     [3e-04, 2e+03]
  QMatrix range    [2e-03, 8e-03]
  QLMatrix range   [6e-02, 6e+01]
  Objective range  [1e+00, 1e+00]
  Bounds range     [1e+00, 1e+00]
  RHS range        [1e+00, 9e+03]
Presolve removed 40323 rows and 12925 columns
Presolve time: 0.19s
Presolved: 9697 rows, 16886 columns, 52574 nonzeros
Presolved model has 2400 quadratic constraint(s)
Variable types: 14486 continuous, 2400 integer (2400 binary)

Root relaxation: objective 6.844213e+04, 7942 iterations, 0.16 seconds (0.23 work units)

    Nodes    |    Current Node    |     Objective Bounds      |     Work
 Expl Unexpl |  Obj  Depth IntInf | Incumbent    BestBd   Gap | It/Node Time

     0     0 68442.1339    0   24          - 68442.1339      -     -    0s
     0     0 354855.523    0  619          - 354855.523      -     -    0s
     0     0 412234.602    0  631          - 412234.602      -     -    1s
     0     0 620230.362    0  628          - 620230.362      -     -    1s
     0     0 620255.173    0  421          - 620255.173      -     -    1s
     0     0 620464.075    0  360          - 620464.075      -     -    1s
     0     0 620466.549    0  360          - 620466.549      -     -    1s
     0     0 620466.549    0  360          - 620466.549      -     -    1s
     0     0 620466.549    0  360          - 620466.549      -     -    1s
     0     2 620467.905    0  360          - 620467.905      -     -    2s
H  673   439                    622368.14404 620474.214  0.30%  28.3    4s
*  673   439             162    622368.14404 620474.214  0.30%  28.3    4s
   833   393 620564.628   14  367 622368.144 620475.349  0.30%  28.3    5s
  1144   629 620556.933   14  383 622368.144 620477.225  0.30%  26.6   10s
  1158   638 621278.977   78  401 622368.144 620479.886  0.30%  26.3   17s
  1278   756 620559.355   30  275 622368.144 620481.184  0.30%  42.4   20s
  2118  1162     cutoff  133      622368.144 620481.184  0.30%  46.9   25s
H 2236   984                    621874.82695 620481.184  0.22%  46.0   26s
* 2236   984             162    621874.82695 620483.329  0.22%  46.1   26s
  2873  1435 620868.494   54  178 621874.827 620483.982  0.22%  57.1   30s
H 3247   827                    620839.72028 620485.245  0.06%  55.6   31s

Cutting planes:
  Gomory: 3
  Cover: 1
  Implied bound: 16
  MIR: 61
  Mixing: 2
  Flow cover: 25
  RLT: 6

Explored 3771 nodes (215354 simplex iterations) in 31.40 seconds (33.90 work units)
Thread count was 4 (of 128 available processors)

Solution count 3: 620840 621875 622368 

Optimal solution found (tolerance 1.00e-03)
Warning: max constraint violation (8.3185e-09) exceeds tolerance
Best objective 6.208397202785e+05, best bound 6.204872896157e+05, gap 0.0568%
